https://people.sc.fsu.edu/~jburkardt/data/cnf/cnf.html
1.
SAT
p cnf 3 2 
1 -3 0 
2 3 -1 0 
2.
SAT
p cnf 3 3 
1 2 3 0 
-1 2 0 
-2 3 0 
3.
SAT
https://people.sc.fsu.edu/~jburkardt/data/cnf/aim-50-1_6-yes1-4.cnf 
4.
UNSAT
p cnf 6 9 
1 2 0 
3 4 0 
5 6 0 
-1 -3 0 
-1 -5 0 
-3 -5 0 
-2 -4 0 
-2 -6 0 
-4 -6 0 
5.
SAT
p cnf 10 5 
1 -2 3 0 
-1 4 5 0 
-3 -4 6 0 
2 7 8 0 
-5 -6 9 10 0 
6.
UNSAT
p cnf 10 25 
1 2 3 4 5 0 
-1 -2 0 
-1 -3 0 
-1 -4 0 
-1 -5 0 
-2 -3 0 
-2 -4 0 
-2 -5 0 
-3 -4 0 
-3 -5 0 
-4 -5 0 
6 7 8 9 10 0 
-6 -7 0 
-6 -8 0 
-6 -9 0 
-6 -10 0 
-7 -8 0 
-7 -9 0 
-7 -10 0 
-8 -9 0 
-8 -10 0 
-9 -10 0 
1 6 0 
2 7 0 
3 8 0 
4 9 0 
5 10 0 
7.
SAT
p cnf 15 7 
1 2 -3 4 0 
-1 5 -6 0 
7 8 -9 10 0 
-4 -5 11 -12 0 
-7 13 -14 15 0 
3 -8 9 -10 0 
-2 6 -11 12 0 
8.
UNSAT
https://people.sc.fsu.edu/~jburkardt/data/cnf/par8-1-c.cnf 
9.
SAT
p cnf 6 5 
-1 2 0 
-2 3 0 
-3 4 0 
-4 5 0 
-5 6 0 
10.
SAT
p cnf 15 8 
1 -2 3 -4 0 
-1 5 6 -7 0 
-3 -5 8 9 0 
2 -6 10 -11 0 
-4 -8 12 0 
-9 -10 13 0 
-11 14 -15 0 
7 -12 -13 14 0 
11.
SAT
p cnf 20 10 
1 -2 3 -4 5 0 
-1 6 7 -8 0 
-3 -6 9 10 0 
2 -7 11 -12 0 
-4 -9 13 0 
-10 -11 14 0 
-5 8 -14 15 0 
-12 -13 16 -17 0 
-15 18 19 -20 0 
-16 -18 20 0 
 
